log/Reading instance from file data/g02.dat
Number of nodes: 21
Number of edges: 65
initialize CPLEX ... done.
Calling CPLEX solve ...
Version identifier: 12.10.0.0 | 2019-11-26 | 843d4de
CPXPARAM_Threads                                 1
CPXPARAM_TimeLimit                               3600
CPXPARAM_WorkMem                                 8192
Tried aggregator 2 times.
MIP Presolve eliminated 31 rows and 40 columns.
MIP Presolve modified 157 coefficients.
Aggregator did 10 substitutions.
Reduced MIP has 153 rows, 230 columns, and 760 nonzeros.
Reduced MIP has 120 binaries, 110 generals, 0 SOSs, and 0 indicators.
Presolve time = 0.00 sec. (1.17 ticks)
Found incumbent of value 5265.000000 after 0.00 sec. (2.04 ticks)
Probing fixed 0 vars, tightened 28 bounds.
Probing time = 0.00 sec. (0.34 ticks)
Cover probing fixed 0 vars, tightened 1 bounds.
Tried aggregator 1 time.
Detecting symmetries...
Reduced MIP has 153 rows, 230 columns, and 760 nonzeros.
Reduced MIP has 120 binaries, 110 generals, 0 SOSs, and 0 indicators.
Presolve time = 0.00 sec. (0.54 ticks)
Probing time = 0.00 sec. (0.28 ticks)
Cover probing fixed 0 vars, tightened 19 bounds.
Clique table members: 111.
MIP emphasis: balance optimality and feasibility.
MIP search method: dynamic search.
Parallel mode: none, using 1 thread.
Root relaxation solution time = 0.00 sec. (0.67 ticks)

        Nodes                                         Cuts/
   Node  Left     Objective  IInf  Best Integer    Best Bound    ItCnt     Gap

*     0+    0                         5265.0000        0.0000           100.00%
      0     0      980.9000    12     5265.0000      980.9000       90   81.37%
      0     0     1114.6711    12     5265.0000      Cuts: 33      142   78.83%
      0     0     1256.0485    12     5265.0000      Cuts: 52      194   76.14%
      0     0     1299.3218    12     5265.0000      Cuts: 19      227   75.32%
      0     0     1315.8238    12     5265.0000      Cuts: 14      253   75.01%
      0     0     1336.7014    12     5265.0000      Cuts: 23      293   74.61%
Detecting symmetries...
      0     0     1343.2035    12     5265.0000      Cuts: 20      312   74.49%
      0     0     1344.9924    12     5265.0000       Cuts: 8      338   74.45%
      0     0     1353.4063    12     5265.0000      Cuts: 15      359   74.29%
      0     0     1374.7366    12     5265.0000       Cuts: 9      392   73.89%
      0     0     1378.2247    12     5265.0000      Cuts: 29      412   73.82%
      0     0     1381.9602    12     5265.0000      Cuts: 15      433   73.75%
      0     0     1382.0702    12     5265.0000       Cuts: 6      435   73.75%
      0     0     1382.0702    12     5265.0000   ZeroHalf: 3      441   73.75%
*     0+    0                         1390.0000     1382.0702             0.57%
Detecting symmetries...

Repeating presolve.
Tried aggregator 2 times.
MIP Presolve eliminated 90 rows and 160 columns.
MIP Presolve modified 18 coefficients.
Aggregator did 11 substitutions.
Reduced MIP has 52 rows, 59 columns, and 195 nonzeros.
Reduced MIP has 34 binaries, 25 generals, 0 SOSs, and 0 indicators.
Presolve time = 0.00 sec. (0.34 ticks)
Probing fixed 1 vars, tightened 7 bounds.
Probing time = 0.00 sec. (0.05 ticks)
Tried aggregator 2 times.
MIP Presolve eliminated 5 rows and 1 columns.
MIP Presolve added 8 rows and 0 columns.
MIP Presolve modified 15 coefficients.
Aggregator did 3 substitutions.
Reduced MIP has 52 rows, 55 columns, and 189 nonzeros.
Reduced MIP has 30 binaries, 25 generals, 0 SOSs, and 0 indicators.
Presolve time = 0.00 sec. (0.24 ticks)
Probing fixed 0 vars, tightened 4 bounds.
Probing time = 0.00 sec. (0.04 ticks)
Tried aggregator 1 time.
Detecting symmetries...
MIP Presolve modified 6 coefficients.
Reduced MIP has 52 rows, 55 columns, and 189 nonzeros.
Reduced MIP has 30 binaries, 25 generals, 0 SOSs, and 0 indicators.
Presolve time = 0.00 sec. (0.15 ticks)
Represolve time = 0.00 sec. (1.64 ticks)
Probing time = 0.00 sec. (0.04 ticks)
Clique table members: 36.
MIP emphasis: balance optimality and feasibility.
MIP search method: dynamic search.
Parallel mode: none, using 1 thread.
Root relaxation solution time = 0.00 sec. (0.66 ticks)

        Nodes                                         Cuts/
   Node  Left     Objective  IInf  Best Integer    Best Bound    ItCnt     Gap

*     0+    0                         1390.0000     1382.0702             0.57%
      0     0     1382.0702    32     1390.0000     1382.0702      508    0.57%
      0     0        cutoff           1390.0000                    511    0.00%
Elapsed time = 0.12 sec. (73.55 ticks, tree = 0.01 MB, solutions = 2)

Cover cuts applied:  9
Implied bound cuts applied:  5
Flow cuts applied:  6
Mixed integer rounding cuts applied:  3
Zero-half cuts applied:  7
Lift and project cuts applied:  4
Gomory fractional cuts applied:  2

Root node processing (before b&c):
  Real time             =    0.12 sec. (73.56 ticks)
Sequential b&c:
  Real time             =    0.00 sec. (0.00 ticks)
                          ------------
Total (root+branch&cut) =    0.12 sec. (73.56 ticks)
SOLUTION:

x(0,11)[0..1]  = 1
x(1,3)[0..1]  = 1
x(1,6)[0..1]  = 1
x(5,17)[0..1]  = 1
x(7,13)[0..1]  = 1
x(13,18)[0..1]  = 1
x(17,19)[0..1]  = 1
x(19,1)[0..1]  = 1
x(7,5)[0..1]  = 1
x(11,7)[0..1]  = 1
z(1)[0..1]  = 1
z(3)[0..1]  = 1
z(5)[0..1]  = 1
z(6)[0..1]  = 1
z(7)[0..1]  = 1
z(11)[0..1]  = 1
z(13)[0..1]  = 1
z(17)[0..1]  = 1
z(18)[0..1]  = 1
z(19)[0..1]  = 1


CPLEX finished.

CPLEX status: Optimal
Branch-and-Bound nodes: 0
Objective value: 1390
CPU time: 0.11

